\* Problem: Unknown *\

Maximize
 obj: + xp_0_0 + xp_0_1 + xp_0_2 + xp_0_3 + xp_0_4 + xp_1_0 + xp_1_1
 + xp_1_2 + xp_2_0 + xp_2_1 + xp_2_2 + xp_2_3 + xp_2_4 + xp_3_0 + xp_3_1
 + xp_3_2 + xp_4_0 + xp_4_1 + xp_5_0 + xp_5_1 + xp_5_2 + xp_6_0 + xp_6_1
 + xp_6_2 + xp_7_0 + xp_7_1 + xp_8_0 + xp_8_1 + xp_9_0 + xp_10_0
 + xp_11_0 + xp_11_1 + xp_11_2 + xp_11_3 + xp_11_4 + xp_12_0 + xp_13_0
 + xp_13_1 + xp_14_0 + xp_14_1 + xp_15_0 + xp_16_0 + xp_16_1 + xp_17_0
 + xp_17_1 + xp_17_2 + xp_17_3 + xp_17_4 + xp_17_5 + xp_18_0 + xp_18_1
 + xp_18_2 + xp_18_3 + xp_19_0 + xp_19_1 + xp_19_2 + xp_19_3 + xp_20_0
 + xp_20_1 + xp_20_2 + xp_21_0 + xp_21_1 + xp_21_2 + xp_21_3 + xp_21_4
 + xp_22_0 + xp_22_1 + xp_22_2 + xp_22_3 + xp_23_0 + xp_23_1 + xp_23_2
 + xp_23_3

Subject To
 r_1: 0 xp_0_0 <= 26.1838588989845
 r_2: + xp_18_3 + xp_6_2 + xp_5_1 + xp_2_2 <= 25.9391100702576
 r_3: + xp_21_4 + xp_18_2 <= 26.6425279789335
 r_4: + xp_17_1 + xp_15_0 <= 27.1553784860558
 r_5: + xp_18_0 <= 25.6936067551267
 r_6: + xp_18_1 <= 26.5090230242688
 r_7: 0 xp_0_0 <= 26.1838588989845
 r_8: + xp_22_2 + xp_11_2 + xp_5_2 + xp_3_1 + xp_2_3 <= 25.9391100702576
 r_9: + xp_23_2 + xp_11_1 + xp_6_1 + xp_3_2 <= 26.6425279789335
 r_10: + xp_17_3 + xp_3_0 <= 27.1553784860558
 r_11: + xp_18_1 + xp_11_3 <= 25.6936067551267
 r_12: + xp_11_0 <= 26.5090230242688
 r_13: + xp_11_4 <= 28.3056478405316
 r_14: + xp_21_1 + xp_14_0 + xp_4_1 + xp_0_2 <= 25.9391100702576
 r_15: + xp_21_0 + xp_19_1 <= 26.6425279789335
 r_16: + xp_22_1 + xp_21_3 + xp_17_5 + xp_0_4 + xp_0_3 + xp_0_1
 <= 27.1553784860558
 r_17: + xp_0_0 <= 25.6936067551267
 r_18: + xp_21_4 + xp_4_0 <= 26.1838588989845
 r_19: + xp_19_0 <= 26.1838588989845
 r_20: + xp_21_2 + xp_19_3 + xp_19_2 + xp_14_1 <= 28.3056478405316
 r_21: + xp_20_1 <= 25.9391100702576
 r_22: + xp_21_1 + xp_7_1 <= 26.6425279789335
 r_23: + xp_22_3 + xp_22_2 <= 27.1553784860558
 r_24: + xp_23_3 + xp_6_2 + xp_3_1 <= 26.6425279789335
 r_25: 0 xp_0_0 <= 28.3056478405316
 r_26: + xp_18_3 + xp_0_2 <= 25.6936067551267
 r_27: + xp_11_4 + xp_11_2 + xp_4_1 <= 25.9391100702576
 r_28: + xp_19_3 <= 25.9391100702576
 r_29: + xp_20_2 <= 26.6425279789335
 r_30: + xp_2_0 <= 26.6425279789335
 r_31: + xp_23_2 + xp_18_2 + xp_6_1 + xp_3_2 + xp_2_4
 <= 26.6425279789335
 r_32: + xp_2_1 <= 28.3056478405316
 r_33: + xp_11_1 + xp_2_2 <= 26.6425279789335
 r_34: + xp_19_1 + xp_2_3 <= 26.6425279789335
 r_35: 0 xp_0_0 <= 27.1553784860558
 r_36: + xp_9_0 <= 27.1553784860558
 r_37: + xp_21_3 + xp_13_1 + xp_8_1 <= 26.6425279789335
 r_38: + xp_1_1 + xp_0_4 <= 28.3056478405316
 r_39: + xp_17_5 + xp_17_4 + xp_0_3 <= 27.1553784860558
 r_40: + xp_0_1 <= 25.6936067551267
 r_41: + xp_12_0 + xp_2_4 <= 26.6425279789335
 r_42: + xp_21_3 <= 26.6425279789335
 r_43: + xp_16_0 <= 26.6425279789335
 r_44: + xp_23_3 + xp_23_2 + xp_23_1 + xp_16_1 + xp_1_2
 <= 28.3056478405316
 r_45: + xp_3_2 + xp_3_1 <= 27.1553784860558
 r_46: + xp_18_2 <= 25.6936067551267
 r_47: + xp_16_1 + xp_13_1 <= 28.3056478405316
 r_48: + xp_13_0 <= 28.3056478405316
 r_49: + xp_17_2 <= 27.1553784860558
 r_50: + xp_0_4 <= 25.6936067551267
 r_51: + xp_8_1 + xp_1_1 <= 27.1553784860558
 r_52: + xp_8_0 + xp_1_2 <= 27.1553784860558
 r_53: + xp_1_0 <= 27.1553784860558
 r_54: + xp_0_3 <= 25.6936067551267
 r_55: 0 xp_0_0 <= 27.1553784860558
 r_56: 0 xp_0_0 <= 27.1553784860558
 r_57: + xp_22_1 + xp_17_5 <= 25.6936067551267
 r_58: + xp_23_3 + xp_22_3 + xp_5_0 <= 25.6936067551267
 r_59: + xp_22_0 + xp_17_4 <= 25.6936067551267
 r_60: + xp_23_1 + xp_6_0 <= 25.6936067551267
 r_61: + xp_23_0 + xp_17_2 <= 25.6936067551267
 r_62: + xp_17_0 <= 25.6936067551267
 r_63: + xp_17_1 + xp_11_3 + xp_6_2 + xp_5_1 <= 25.6936067551267
 r_64: + xp_23_2 + xp_22_2 + xp_17_3 + xp_6_1 + xp_5_2
 <= 25.6936067551267
 r_65: + xp_20_1 + xp_19_3 + xp_14_1 + xp_11_4 + xp_7_1 + xp_2_1
 <= 28.3056478405316
 r_66: + xp_21_2 + xp_20_2 + xp_7_0 <= 28.3056478405316
 r_67: + xp_19_2 + xp_10_0 <= 28.3056478405316
 r_68: + xp_20_0 <= 28.3056478405316

Bounds
 0 <= xp_0_0 <= 30
 0 <= xp_0_1 <= 12.8571428571429
 0 <= xp_0_2 <= 8.57142857142857
 0 <= xp_0_3 <= 4.28571428571428
 0 <= xp_0_4 <= 4.28571428571428
 0 <= xp_1_0 <= 23.1544178571428
 0 <= xp_1_1 <= 10.297275
 0 <= xp_1_2 <= 0.575282142857143
 0 <= xp_2_0 <= 21.9360257142857
 0 <= xp_2_1 <= 0.507454285714286
 0 <= xp_2_2 <= 4.79316857142857
 0 <= xp_2_3 <= 5.80807714285714
 0 <= xp_2_4 <= 0.507454285714286
 0 <= xp_3_0 <= 21.4285714285714
 0 <= xp_3_1 <= 4.28571428571428
 0 <= xp_3_2 <= 4.28571428571428
 0 <= xp_4_0 <= 21.7049142857143
 0 <= xp_4_1 <= 3.61748571428571
 0 <= xp_5_0 <= 14.4699428571429
 0 <= xp_5_1 <= 7.23497142857143
 0 <= xp_5_2 <= 3.61748571428571
 0 <= xp_6_0 <= 16.2786857142857
 0 <= xp_6_1 <= 3.25573714285714
 0 <= xp_6_2 <= 3.25573714285714
 0 <= xp_7_0 <= 18.7204885714286
 0 <= xp_7_1 <= 3.12008142857143
 0 <= xp_8_0 <= 16.8213085714286
 0 <= xp_8_1 <= 2.80355142857143
 0 <= xp_9_0 <= 18.200475
 0 <= xp_10_0 <= 18.200475
 0 <= xp_11_0 <= 25.3726371428571
 0 <= xp_11_1 <= 12.1738457142857
 0 <= xp_11_2 <= 7.88813142857143
 0 <= xp_11_3 <= 8.22978
 0 <= xp_11_4 <= 3.94406571428571
 0 <= xp_12_0 <= 17.09262
 0 <= xp_13_0 <= 11.869875
 0 <= xp_13_1 <= 4.74795
 0 <= xp_14_0 <= 9.04371428571428
 0 <= xp_14_1 <= 6.78278571428571
 0 <= xp_15_0 <= 15.668235
 0 <= xp_16_0 <= 12.8872928571429
 0 <= xp_16_1 <= 2.14788214285714
 0 <= xp_17_0 <= 27.4275728571428
 0 <= xp_17_1 <= 1.99966714285714
 0 <= xp_17_2 <= 3.99933428571428
 0 <= xp_17_3 <= 4.28571428571428
 0 <= xp_17_4 <= 4.28571428571428
 0 <= xp_17_5 <= 1.99966714285714
 0 <= xp_18_0 <= 22.3279242857143
 0 <= xp_18_1 <= 10.2997842857143
 0 <= xp_18_2 <= 6.01407
 0 <= xp_18_3 <= 3.45671142857143
 0 <= xp_19_0 <= 29.0353414285714
 0 <= xp_19_1 <= 4.98158357142857
 0 <= xp_19_2 <= 5.94624214285714
 0 <= xp_19_3 <= 1.66052785714286
 0 <= xp_20_0 <= 28.8092485714286
 0 <= xp_20_1 <= 7.38067714285714
 0 <= xp_20_2 <= 4.64244428571428
 0 <= xp_21_0 <= 24.02613
 0 <= xp_21_1 <= 5.58449357142857
 0 <= xp_21_2 <= 1.29877928571429
 0 <= xp_21_3 <= 2.59755857142857
 0 <= xp_21_4 <= 5.58449357142857
 0 <= xp_22_0 <= 24.6466307142857
 0 <= xp_22_1 <= 1.07268642857143
 0 <= xp_22_2 <= 2.14537285714286
 0 <= xp_22_3 <= 9.644115
 0 <= xp_23_0 <= 23.5739442857143
 0 <= xp_23_1 <= 11.7894878571429
 0 <= xp_23_2 <= 1.07268642857143
 0 <= xp_23_3 <= 1.07268642857143

End
